33D32945 STP File, STP Format Version 1.0

SECTION Comments
Name "shell_n11_d3_s5"
Problem "Euclidean Steiner Tree Problem"
Remark "Generated with STPGenerator. 3 dimensions."
END

SECTION Graph
Nodes 11
END

SECTION Coordinates
DDD 0 -0.9734735658 -0.2286674329 -0.0077731445
DDD 1 -0.6758938070 -0.3785487932 -0.6323514631
DDD 2 -0.2589046872 -0.7510106060 -0.6074137244
DDD 3 -0.1733084152 -0.2185152824 -0.9603203968
DDD 4 -0.2172519206 -0.2536135144 0.9425931192
DDD 5 -0.0733170769 0.5604977680 -0.8249041510
DDD 6 -0.9935252916 0.0944563184 -0.0631308081
DDD 7 0.2020478246 -0.8466404494 0.4923176069
DDD 8 0.1650778379 -0.0618089003 -0.9843418955
DDD 9 0.5471182135 -0.8327833139 -0.0844607160
DDD 10 -0.0308936956 -0.1950247496 0.9803116477
END
